NAME : berlin52-R-5-2-b.8679.tour
COMMENT : Length = 8679
COMMENT : Found by LKH-3 [Keld Helsgaun] Tue Jul 30 13:14:23 2024
TYPE : TOUR
DIMENSION : 52
TOUR_SECTION
1
49
22
18
31
23
20
50
34
37
38
48
24
6
43
10
9
33
51
12
11
52
14
13
47
26
27
28
25
4
15
5
40
39
36
35
44
46
16
29
30
2
7
42
21
17
3
41
8
19
45
32
-1
EOF
